c Decomposition from Toto database
c graph6 ~?@DjO_gcVC_C@OA@AB`?wPNAL[CcW@??@Gg?_D?G??@?J_C?@?HAA?DBO_?x???GO??@A?_?CGBG?GOEw?GOE???G????A?????O@???@?AO??A@__??A??????_?????G??@??@???C???G??????O??????C??????A?A?????C?O?????_??????A?????????o???????_G_?????G?O?????A????????O?_?????@??W?????A??O?????A????????@?????????O????????A?C????????CA????????G?????????G?????????C?????????@??B???????GO?K???????@??g??????????O??????????O?????G????G
s td 59 9 69
b 1 9 18 20 23 25 37
b 2 9 12 17 18 20 25 26 37 65
b 3 9 12 16 17 18 20 26 65
b 4 5 7 9 12 16 17 18 26 65
b 5 4 5 7 9 17 18 26
b 6 4 5 6 7 9 18
b 7 5 7 12 14 16 17 65
b 8 4 7 10 17 26
b 9 5 12 14 16 17 27 65
b 10 12 17 25 26 37 38 65
b 11 12 17 25 26 31 37 38
b 12 25 37 38 45 65
b 13 37 38 45 50 65
b 14 37 38 45 49 50
b 15 38 45 49 52
b 16 17 27 35 65
b 17 12 17 28 31 38
b 18 9 23 24 37
b 19 5 12 13 14 16 17 27
b 20 3 4 5 6
b 21 2 3 4 5
b 22 35 65 69
b 23 45 50 65 66
b 24 45 63 65 66
b 25 45 52 60
b 26 38 49 52 54
b 27 38 49 53 54
b 28 28 38 46
b 29 5 12 13 14 15 16 17
b 30 7 11 14
b 31 65 68
b 32 65 67
b 33 45 63 64 65
b 34 45 62 64
b 35 45 61
b 36 38 49 59
b 37 38 58
b 38 38 57
b 39 38 56
b 40 38 53 55
b 41 38 49 51
b 42 28 48
b 43 28 47
b 44 25 44
b 45 23 43
b 46 23 42
b 47 18 40 41
b 48 18 39 40
b 49 17 28 31 36
b 50 17 34
b 51 17 33
b 52 12 17 25 26 32
b 53 12 17 25 26 30 31
b 54 12 17 25 29 30 31
b 55 9 22 23
b 56 9 18 20 21 23
b 57 9 19
b 58 4 7 8 9
b 59 1 2
1 18
1 45
1 46
1 55
1 56
1 2
2 3
2 10
2 52
2 50
2 51
2 57
2 44
2 31
2 32
2 47
3 4
4 5
4 7
5 6
5 8
5 58
6 20
7 9
7 30
9 16
9 19
10 11
10 12
10 37
10 38
10 39
11 17
11 53
12 13
12 35
13 14
13 23
14 15
14 36
14 41
15 25
15 26
16 22
17 28
17 42
17 43
17 49
19 29
20 21
21 59
23 24
24 33
26 27
27 40
33 34
47 48
53 54
